(set-option :produce-unsat-cores true) ; enable generation of unsat cores
(set-option :produce-models true) ; enable model generation
(set-logic ALL)
(declare-sort var1985 0)
(declare-sort var1964 0)
(declare-sort var3394 0)
(declare-sort var2602 0)
(declare-sort void 0)
(declare-sort Iterator 0)
(declare-sort ClassObject 0)
(declare-fun String-init () String)
(define-fun <init>/1968657023 () String "")
(define-fun append/672562846 ((s String) (tail String)) String (str.++ s tail))
(define-fun append/-1001720160 ((s String) (tail Int)) String (str.++ s (str.from_int tail)))
(define-fun toString/-2075883882 ((s String)) String s)
(declare-fun log/-1110529256 (var1985) var1964)
(declare-fun println/1773605060 (var1964 String) void)
(declare-fun g2D/-1110529256 (var1985) var3394)
(declare-fun drawArc/-772468866 (var2602 Int Int Int Int Int Int) void)
(declare-fun cast-from-var3394-to-var2602 (var3394) var2602)
(declare-const null-var1985 var1985)
(declare-const null-Int Int)
(declare-const var2118 var1985) ; Statement: r14 := @this: org.apache.poi.xslf.util.DummyGraphics2d 
(assert (not (= var2118 null-var1985)))
(declare-const var2783 Int) ; Statement: i0 := @parameter0: int 
(assert (not (= var2783 null-Int)))
(declare-const var3837 Int) ; Statement: i1 := @parameter1: int 
(assert (not (= var3837 null-Int)))
(declare-const var3977 Int) ; Statement: i2 := @parameter2: int 
(assert (not (= var3977 null-Int)))
(declare-const var1028 Int) ; Statement: i3 := @parameter3: int 
(assert (not (= var1028 null-Int)))
(declare-const var1448 Int) ; Statement: i4 := @parameter4: int 
(assert (not (= var1448 null-Int)))
(declare-const var1445 Int) ; Statement: i5 := @parameter5: int 
(assert (not (= var1445 null-Int)))
(define-const var1766 String String-init) ; Statement: $r0 = new java.lang.StringBuilder 
(assert true)
;(assert (<init>/1968657023 var1766)) ; Statement: specialinvoke $r0.<java.lang.StringBuilder: void <init>()>() 
(declare-const var1766!1 String)
(assert (= var1766!1 ""))
(assert true)
(define-const var3940 String (append/672562846 var1766!1 "drawArc(int,int,int,int,int,int):\n  x = ")) ; Statement: $r1 = virtualinvoke $r0.<java.lang.StringBuilder: java.lang.StringBuilder append(java.lang.String)>("drawArc(int,int,int,int,int,int):\n  x = ") 
(declare-const var1766!2 String)
(assert (= var1766!2 (str.++ var1766!1 "drawArc(int,int,int,int,int,int):\n  x = ")))
(assert true)
(define-const var3972 String (append/-1001720160 var3940 var2783)) ; Statement: $r2 = virtualinvoke $r1.<java.lang.StringBuilder: java.lang.StringBuilder append(int)>(i0) 
(declare-const var3940!1 String)
(assert (str.prefixof var3940 var3940!1))
(assert true)
(define-const var892 String (append/672562846 var3972 "\n  y = ")) ; Statement: $r3 = virtualinvoke $r2.<java.lang.StringBuilder: java.lang.StringBuilder append(java.lang.String)>("\n  y = ") 
(declare-const var3972!1 String)
(assert (= var3972!1 (str.++ var3972 "\n  y = ")))
(assert true)
(define-const var1769 String (append/-1001720160 var892 var3837)) ; Statement: $r4 = virtualinvoke $r3.<java.lang.StringBuilder: java.lang.StringBuilder append(int)>(i1) 
(declare-const var892!1 String)
(assert (str.prefixof var892 var892!1))
(assert true)
(define-const var1918 String (append/672562846 var1769 "\n  width = ")) ; Statement: $r5 = virtualinvoke $r4.<java.lang.StringBuilder: java.lang.StringBuilder append(java.lang.String)>("\n  width = ") 
(declare-const var1769!1 String)
(assert (= var1769!1 (str.++ var1769 "\n  width = ")))
(assert true)
(define-const var1232 String (append/-1001720160 var1918 var3977)) ; Statement: $r6 = virtualinvoke $r5.<java.lang.StringBuilder: java.lang.StringBuilder append(int)>(i2) 
(declare-const var1918!1 String)
(assert (str.prefixof var1918 var1918!1))
(assert true)
(define-const var333 String (append/672562846 var1232 "\n  height = ")) ; Statement: $r7 = virtualinvoke $r6.<java.lang.StringBuilder: java.lang.StringBuilder append(java.lang.String)>("\n  height = ") 
(declare-const var1232!1 String)
(assert (= var1232!1 (str.++ var1232 "\n  height = ")))
(assert true)
(define-const var1956 String (append/-1001720160 var333 var1028)) ; Statement: $r8 = virtualinvoke $r7.<java.lang.StringBuilder: java.lang.StringBuilder append(int)>(i3) 
(declare-const var333!1 String)
(assert (str.prefixof var333 var333!1))
(assert true)
(define-const var1447 String (append/672562846 var1956 "\n  startAngle = ")) ; Statement: $r9 = virtualinvoke $r8.<java.lang.StringBuilder: java.lang.StringBuilder append(java.lang.String)>("\n  startAngle = ") 
(declare-const var1956!1 String)
(assert (= var1956!1 (str.++ var1956 "\n  startAngle = ")))
(assert true)
(define-const var2445 String (append/-1001720160 var1447 var1448)) ; Statement: $r10 = virtualinvoke $r9.<java.lang.StringBuilder: java.lang.StringBuilder append(int)>(i4) 
(declare-const var1447!1 String)
(assert (str.prefixof var1447 var1447!1))
(assert true)
(define-const var79 String (append/672562846 var2445 "\n  arcAngle = ")) ; Statement: $r11 = virtualinvoke $r10.<java.lang.StringBuilder: java.lang.StringBuilder append(java.lang.String)>("\n  arcAngle = ") 
(declare-const var2445!1 String)
(assert (= var2445!1 (str.++ var2445 "\n  arcAngle = ")))
(assert true)
(define-const var1026 String (append/-1001720160 var79 var1445)) ; Statement: $r12 = virtualinvoke $r11.<java.lang.StringBuilder: java.lang.StringBuilder append(int)>(i5) 
(declare-const var79!1 String)
(assert (str.prefixof var79 var79!1))
(assert true)
(define-const var379 String (toString/-2075883882 var1026)) ; Statement: r13 = virtualinvoke $r12.<java.lang.StringBuilder: java.lang.String toString()>() 
(define-const var551 var1964 (log/-1110529256 var2118)) ; Statement: $r15 = r14.<org.apache.poi.xslf.util.DummyGraphics2d: java.io.PrintStream log> 
(assert true)
;(assert (println/1773605060 var551 var379)) ; Statement: virtualinvoke $r15.<java.io.PrintStream: void println(java.lang.String)>(r13) 

(declare-const var551!1 var1964)
(declare-const var379!1 String)
(define-const var1233 var3394 (g2D/-1110529256 var2118)) ; Statement: $r16 = r14.<org.apache.poi.xslf.util.DummyGraphics2d: java.awt.Graphics2D g2D> 
(assert true)
;(assert (drawArc/-772468866 (cast-from-var3394-to-var2602 var1233) var2783 var3837 var3977 var1028 var1448 var1445)) ; Statement: virtualinvoke $r16.<java.awt.Graphics2D: void drawArc(int,int,int,int,int,int)>(i0, i1, i2, i3, i4, i5) 

(declare-const var1233!1 var3394)
(declare-const var2783!1 Int)
(declare-const var3837!1 Int)
(declare-const var3977!1 Int)
(declare-const var1028!1 Int)
(declare-const var1448!1 Int)
(declare-const var1445!1 Int)
 ; Statement: return 
(check-sat)
(get-model)
(get-unsat-core)
; {String-init=([], java.lang.StringBuilder), <init>/1968657023=([java.lang.StringBuilder], void), append/672562846=([java.lang.StringBuilder, java.lang.String], java.lang.StringBuilder), append/-1001720160=([java.lang.StringBuilder, int], java.lang.StringBuilder), toString/-2075883882=([java.lang.StringBuilder], java.lang.String), log/-1110529256=([org.apache.poi.xslf.util.DummyGraphics2d], java.io.PrintStream), println/1773605060=([java.io.PrintStream, java.lang.String], void), g2D/-1110529256=([org.apache.poi.xslf.util.DummyGraphics2d], java.awt.Graphics2D), drawArc/-772468866=([java.awt.Graphics, int, int, int, int, int, int], void), cast-from-var3394-to-var2602=([java.awt.Graphics2D], java.awt.Graphics)}
; {var1985=org.apache.poi.xslf.util.DummyGraphics2d, var2118=r14, var2783=i0, var3837=i1, var3977=i2, var1028=i3, var1448=i4, var1445=i5, var1766=$r0, var3940=$r1, var3972=$r2, var892=$r3, var1769=$r4, var1918=$r5, var1232=$r6, var333=$r7, var1956=$r8, var1447=$r9, var2445=$r10, var79=$r11, var1026=$r12, var379=r13, var1964=java.io.PrintStream, var551=$r15, var3394=java.awt.Graphics2D, var1233=$r16, var2602=java.awt.Graphics}
; {org.apache.poi.xslf.util.DummyGraphics2d=var1985, r14=var2118, i0=var2783, i1=var3837, i2=var3977, i3=var1028, i4=var1448, i5=var1445, $r0=var1766, $r1=var3940, $r2=var3972, $r3=var892, $r4=var1769, $r5=var1918, $r6=var1232, $r7=var333, $r8=var1956, $r9=var1447, $r10=var2445, $r11=var79, $r12=var1026, r13=var379, java.io.PrintStream=var1964, $r15=var551, java.awt.Graphics2D=var3394, $r16=var1233, java.awt.Graphics=var2602}
;seq <java.lang.StringBuilder: void <init>()>;	<java.lang.StringBuilder: java.lang.StringBuilder append(java.lang.String)>;	<java.lang.StringBuilder: java.lang.StringBuilder append(int)>;	<java.lang.StringBuilder: java.lang.StringBuilder append(java.lang.String)>;	<java.lang.StringBuilder: java.lang.StringBuilder append(int)>;	<java.lang.StringBuilder: java.lang.StringBuilder append(java.lang.String)>;	<java.lang.StringBuilder: java.lang.StringBuilder append(int)>;	<java.lang.StringBuilder: java.lang.StringBuilder append(java.lang.String)>;	<java.lang.StringBuilder: java.lang.StringBuilder append(int)>;	<java.lang.StringBuilder: java.lang.StringBuilder append(java.lang.String)>;	<java.lang.StringBuilder: java.lang.StringBuilder append(int)>;	<java.lang.StringBuilder: java.lang.StringBuilder append(java.lang.String)>;	<java.lang.StringBuilder: java.lang.StringBuilder append(int)>;	<java.lang.StringBuilder: java.lang.String toString()>
;cnt {"<java.lang.StringBuilder: void <init>()>": 1,"<java.lang.StringBuilder: java.lang.StringBuilder append(java.lang.String)>": 6,"<java.lang.StringBuilder: java.lang.StringBuilder append(int)>": 6,"<java.lang.StringBuilder: java.lang.String toString()>": 1}
;stmts r14 := @this: org.apache.poi.xslf.util.DummyGraphics2d;	i0 := @parameter0: int;	i1 := @parameter1: int;	i2 := @parameter2: int;	i3 := @parameter3: int;	i4 := @parameter4: int;	i5 := @parameter5: int;	$r0 = new java.lang.StringBuilder;	specialinvoke $r0.<java.lang.StringBuilder: void <init>()>();	$r1 = virtualinvoke $r0.<java.lang.StringBuilder: java.lang.StringBuilder append(java.lang.String)>("drawArc(int,int,int,int,int,int):\n  x = ");	$r2 = virtualinvoke $r1.<java.lang.StringBuilder: java.lang.StringBuilder append(int)>(i0);	$r3 = virtualinvoke $r2.<java.lang.StringBuilder: java.lang.StringBuilder append(java.lang.String)>("\n  y = ");	$r4 = virtualinvoke $r3.<java.lang.StringBuilder: java.lang.StringBuilder append(int)>(i1);	$r5 = virtualinvoke $r4.<java.lang.StringBuilder: java.lang.StringBuilder append(java.lang.String)>("\n  width = ");	$r6 = virtualinvoke $r5.<java.lang.StringBuilder: java.lang.StringBuilder append(int)>(i2);	$r7 = virtualinvoke $r6.<java.lang.StringBuilder: java.lang.StringBuilder append(java.lang.String)>("\n  height = ");	$r8 = virtualinvoke $r7.<java.lang.StringBuilder: java.lang.StringBuilder append(int)>(i3);	$r9 = virtualinvoke $r8.<java.lang.StringBuilder: java.lang.StringBuilder append(java.lang.String)>("\n  startAngle = ");	$r10 = virtualinvoke $r9.<java.lang.StringBuilder: java.lang.StringBuilder append(int)>(i4);	$r11 = virtualinvoke $r10.<java.lang.StringBuilder: java.lang.StringBuilder append(java.lang.String)>("\n  arcAngle = ");	$r12 = virtualinvoke $r11.<java.lang.StringBuilder: java.lang.StringBuilder append(int)>(i5);	r13 = virtualinvoke $r12.<java.lang.StringBuilder: java.lang.String toString()>();	$r15 = r14.<org.apache.poi.xslf.util.DummyGraphics2d: java.io.PrintStream log>;	virtualinvoke $r15.<java.io.PrintStream: void println(java.lang.String)>(r13);	$r16 = r14.<org.apache.poi.xslf.util.DummyGraphics2d: java.awt.Graphics2D g2D>;	virtualinvoke $r16.<java.awt.Graphics2D: void drawArc(int,int,int,int,int,int)>(i0, i1, i2, i3, i4, i5);	return
;block_num 1